(set-logic ALL)
(set-option :incremental true)
(set-option :produce-models true)


(declare-fun |stdin0| () String)
(declare-fun |fread0| () Int)
(declare-fun |memchr0| () String)
(declare-fun |memchr1| () String)
(declare-fun |memchr2| () String)
(declare-fun |memchr3| () String)

(assert (>= fread0 0))
(assert (not (>= fread0 72)))
(assert (= fread0 (str.len (str.substr stdin0 0 fread0))))
(assert (= fread0 (str.len (str.substr stdin0 0 71))))
(assert (not (>= fread0 73)))
(assert (not (>= (str.to_code (str.substr stdin0 70 (+ (- 70) fread0))) 256)))
(assert (not (= (str.to_code (str.substr stdin0 70 (+ (- 70) fread0))) 10)))
(assert (str.contains (str.substr stdin0 0 (str.indexof (str.++ (str.substr stdin0 0 fread0) "\u{0}") "\u{0}" 0)) "#"))
(assert (= (str.++ (str.substr stdin0 0 (str.indexof (str.++ (str.substr stdin0 0 fread0) "\u{0}") "\u{0}" 0)) "\u{0}") (str.++ memchr0 "#" memchr1)))
(assert (not (= (str.len memchr0) (- 97952711561584))))
(assert (>= (str.len memchr0) 0))
(assert (not (>= (str.len memchr0) 72)))
(assert (str.contains (str.substr stdin0 0 (str.indexof (str.++ (str.substr stdin0 0 (str.len memchr0)) "\u{0}") "\u{0}" 0)) "?"))
(assert (= (str.++ (str.substr stdin0 0 (str.indexof (str.++ (str.substr stdin0 0 (str.len memchr0)) "\u{0}") "\u{0}" 0)) "\u{0}") (str.++ memchr2 "?" memchr3)))
(assert (= (str.len memchr2) (- 97952711561584)))

(check-sat)
